29 29
24
3 3 12 15
3 4 15 25
3 5 0 6
3 6 0 0
3 7 8 0
3 8 8 7
3 9 18 0
3 10 15 0
3 11 12 18
3 15 15 10
3 18 0 11
3 20 18 9
4 3 8 26
4 4 8 15
4 5 25 18
4 6 25 23
4 7 8 19
4 9 21 20
4 15 11 0
4 18 25 0
4 20 21 0
5 4 3 25
5 8 3 17
5 17 3 0
